c Command line: hgen8 155 60
p cnf 155 240
26 132 19 52 0
10 122 110 136 0
146 131 75 25 0
123 39 43 30 0
148 66 103 74 0
130 41 81 6 0
142 13 60 155 0
64 78 143 18 0
76 15 91 38 0
139 37 99 137 0
105 127 31 128 0
28 1 59 46 0
72 153 114 85 0
11 63 94 106 0
108 73 145 79 0
23 5 42 115 0
101 3 17 14 0
125 92 7 12 0
152 121 67 4 0
87 141 151 118 0
120 56 62 113 0
57 89 68 24 0
16 55 54 8 0
117 140 116 111 0
50 21 104 112 0
129 77 22 35 0
135 33 61 97 0
124 84 51 32 0
40 95 126 47 0
86 29 149 93 0
45 133 102 98 0
134 53 80 147 0
-1 -3 0
-1 -4 0
-1 -5 0
-3 -4 0
-3 -5 0
-4 -5 0
-6 -7 0
-6 -8 0
-6 -10 0
-7 -8 0
-7 -10 0
-8 -10 0
-11 -12 0
-11 -13 0
-11 -14 0
-11 -15 0
-12 -13 0
-12 -14 0
-12 -15 0
-13 -14 0
-13 -15 0
-14 -15 0
-16 -17 0
-16 -18 0
-16 -19 0
-17 -18 0
-17 -19 0
-18 -19 0
-21 -22 0
-21 -23 0
-21 -24 0
-21 -25 0
-22 -23 0
-22 -24 0
-22 -25 0
-23 -24 0
-23 -25 0
-24 -25 0
-26 -28 0
-26 -29 0
-26 -30 0
-28 -29 0
-28 -30 0
-29 -30 0
-31 -32 0
-31 -33 0
-31 -35 0
-32 -33 0
-32 -35 0
-33 -35 0
-37 -38 0
-37 -39 0
-37 -40 0
-38 -39 0
-38 -40 0
-39 -40 0
-41 -42 0
-41 -43 0
-41 -45 0
-42 -43 0
-42 -45 0
-43 -45 0
-46 -47 0
-46 -50 0
-47 -50 0
-51 -52 0
-51 -53 0
-51 -54 0
-51 -55 0
-52 -53 0
-52 -54 0
-52 -55 0
-53 -54 0
-53 -55 0
-54 -55 0
-56 -57 0
-56 -59 0
-56 -60 0
-57 -59 0
-57 -60 0
-59 -60 0
-61 -62 0
-61 -63 0
-61 -64 0
-62 -63 0
-62 -64 0
-63 -64 0
-66 -67 0
-66 -68 0
-67 -68 0
-72 -73 0
-72 -74 0
-72 -75 0
-73 -74 0
-73 -75 0
-74 -75 0
-76 -77 0
-76 -78 0
-76 -79 0
-76 -80 0
-77 -78 0
-77 -79 0
-77 -80 0
-78 -79 0
-78 -80 0
-79 -80 0
-81 -84 0
-81 -85 0
-84 -85 0
-86 -87 0
-86 -89 0
-87 -89 0
-91 -92 0
-91 -93 0
-91 -94 0
-91 -95 0
-92 -93 0
-92 -94 0
-92 -95 0
-93 -94 0
-93 -95 0
-94 -95 0
-97 -98 0
-97 -99 0
-98 -99 0
-101 -102 0
-101 -103 0
-101 -104 0
-101 -105 0
-102 -103 0
-102 -104 0
-102 -105 0
-103 -104 0
-103 -105 0
-104 -105 0
-106 -108 0
-106 -110 0
-108 -110 0
-111 -112 0
-111 -113 0
-111 -114 0
-111 -115 0
-112 -113 0
-112 -114 0
-112 -115 0
-113 -114 0
-113 -115 0
-114 -115 0
-116 -117 0
-116 -118 0
-116 -120 0
-117 -118 0
-117 -120 0
-118 -120 0
-121 -122 0
-121 -123 0
-121 -124 0
-121 -125 0
-122 -123 0
-122 -124 0
-122 -125 0
-123 -124 0
-123 -125 0
-124 -125 0
-126 -127 0
-126 -128 0
-126 -129 0
-126 -130 0
-127 -128 0
-127 -129 0
-127 -130 0
-128 -129 0
-128 -130 0
-129 -130 0
-131 -132 0
-131 -133 0
-131 -134 0
-131 -135 0
-132 -133 0
-132 -134 0
-132 -135 0
-133 -134 0
-133 -135 0
-134 -135 0
-136 -137 0
-136 -139 0
-136 -140 0
-137 -139 0
-137 -140 0
-139 -140 0
-141 -142 0
-141 -143 0
-141 -145 0
-142 -143 0
-142 -145 0
-143 -145 0
-146 -147 0
-146 -148 0
-146 -149 0
-147 -148 0
-147 -149 0
-148 -149 0
-151 -152 0
-151 -153 0
-151 -155 0
-152 -153 0
-152 -155 0
-153 -155 0
